c first: num of var; second: num of clauses; end clause with 0
c 1=b11, 2=b12, 3=b21, 4=p11, 5=p12, 6=p13, 7=p21, 8=p22, 9=p31
p cnf 9 11
-1 5 7 0
-5 1 0
-7 1 0
-3 4 8 9 0
-4 3 0
-8 3 0
-9 3 0
-2 4 8 6 0
-4 2 0
-8 2 0
-6 2 0